830328
0,8,32,56,46,94,24,77,50,78,28,39,93,25,16,11,18,58,89,70,33,45,27,10,22,97,53,64,51,23,42,21,72,83,91,38,13,85,80,6,65,3,44,86,75,37,49,87,82,14,15,81,57,60,66,34,96,41,26,1,2,63,4,84,88,7,52,90,43,54,71,35,98,79,67,12,62,30,61,92,48,9,55,17,68,74,5,40,76,29,95,20,19,59,31,69,73,36,47
